Ca1 Ti1 O3
1.0
3.889471 0.000000 0.000000
0.000000 3.889471 0.000000
0.000000 0.000000 3.889471
Ca Ti O
1 1 3
direct
0.500000 0.500000 0.500000 Ca
0.000000 0.000000 0.000000 Ti
0.000000 0.500000 0.000000 O
0.000000 0.000000 0.500000 O
0.500000 0.000000 0.000000 O
