poscar file by
1.000000
8.520156 0.000000 0.000000
0.000000 8.520156 0.000000
0.000000 0.000000 8.520156
Fe 
54 
Selective dynamics
Cartesian
0.000000 0.000000 0.000000   T T T
1.420026 1.420026 1.420026   T T T
2.840052 0.000000 0.000000   T T T
4.260078 1.420026 1.420026   T T T
5.680104 0.000000 0.000000   T T T
7.100129 1.420026 1.420026   T T T
0.000000 2.840052 0.000000   T T T
1.420026 4.260078 1.420026   T T T
2.840052 2.840052 0.000000   T T T
4.260078 4.260078 1.420026   T T T
5.680104 2.840052 0.000000   T T T
7.100129 4.260078 1.420026   T T T
0.000000 5.680104 0.000000   T T T
1.420026 7.100129 1.420026   T T T
2.840052 5.680104 0.000000   T T T
4.260078 7.100129 1.420026   T T T
5.680104 5.680104 0.000000   T T T
7.100129 7.100129 1.420026   T T T
0.000000 0.000000 2.840052   T T T
1.420026 1.420026 4.260078   T T T
2.840052 0.000000 2.840052   T T T
4.260078 1.420026 4.260078   T T T
5.680104 0.000000 2.840052   T T T
7.100129 1.420026 4.260078   T T T
0.000000 2.840052 2.840052   T T T
1.420026 4.260078 4.260078   T T T
2.840052 2.840052 2.840052   T T T
4.260078 4.260078 4.260078   T T T
5.680104 2.840052 2.840052   T T T
7.100129 4.260078 4.260078   T T T
0.000000 5.680104 2.840052   T T T
1.420026 7.100129 4.260078   T T T
2.840052 5.680104 2.840052   T T T
4.260078 7.100129 4.260078   T T T
5.680104 5.680104 2.840052   T T T
7.100129 7.100129 4.260078   T T T
0.000000 0.000000 5.680104   T T T
1.420026 1.420026 7.100129   T T T
2.840052 0.000000 5.680104   T T T
4.260078 1.420026 7.100129   T T T
5.680104 0.000000 5.680104   T T T
7.100129 1.420026 7.100129   T T T
0.000000 2.840052 5.680104   T T T
1.420026 4.260078 7.100129   T T T
2.840052 2.840052 5.680104   T T T
4.260078 4.260078 7.100129   T T T
5.680104 2.840052 5.680104   T T T
7.100129 4.260078 7.100129   T T T
0.000000 5.680104 5.680104   T T T
1.420026 7.100129 7.100129   T T T
2.840052 5.680104 5.680104   T T T
4.260078 7.100129 7.100129   T T T
5.680104 5.680104 5.680104   T T T
7.100129 7.100129 7.100129   T T T
