Cu     O          H                     
   1.00000000000000     
    33.3999999999999986    0.0000000000000000    0.0000000000000000
     0.0000000000000000   36.3999999999999986    0.0000000000000000
     0.0000000000000000    0.0000000000000000   37.0000000000000000
   Cu   O    H   
   320   320    80  
Selective dynamics
Direct
  0.1525309281437117  0.1255386263736256  0.0886418918918892   F   F   F
  0.1525309281437117  0.3755386263736256  0.0886418918918892   F   F   F
  0.1525309281437117  0.6255386813186803  0.0886418918918892   F   F   F
  0.1525309281437117  0.8755386263736256  0.0886418918918892   F   F   F
  0.3525308982035895  0.1255386263736256  0.0886418918918892   F   F   F
  0.3525308982035895  0.3755386263736256  0.0886418918918892   F   F   F
  0.3525308982035895  0.6255386813186803  0.0886418918918892   F   F   F
  0.3525308982035895  0.8755386263736256  0.0886418918918892   F   F   F
  0.5525309281437103  0.1255386263736256  0.0886418918918892   F   F   F
  0.5525309281437103  0.3755386263736256  0.0886418918918892   F   F   F
  0.5525309281437103  0.6255386813186803  0.0886418918918892   F   F   F
  0.5525309281437103  0.8755386263736256  0.0886418918918892   F   F   F
  0.7525309281437131  0.1255386263736256  0.0886418918918892   F   F   F
  0.7525309281437131  0.3755386263736256  0.0886418918918892   F   F   F
  0.7525309281437131  0.6255386813186803  0.0886418918918892   F   F   F
  0.7525309281437131  0.8755386263736256  0.0886418918918892   F   F   F
  0.9525309281437160  0.1255386263736256  0.0886418918918892   F   F   F
  0.9525309281437160  0.3755386263736256  0.0886418918918892   F   F   F
  0.9525309281437160  0.6255386813186803  0.0886418918918892   F   F   F
  0.9525309281437160  0.8755386263736256  0.0886418918918892   F   F   F
  0.0519527844311369  0.1272810439560459  0.0899615405405427   F   F   F
  0.0519527844311369  0.3772810439560459  0.0899615405405427   F   F   F
  0.0519527844311369  0.6272810714285697  0.0899615405405427   F   F   F
  0.0519527844311369  0.8772810714285697  0.0899615405405427   F   F   F
  0.2519527844311398  0.1272810439560459  0.0899615405405427   F   F   F
  0.2519527844311398  0.3772810439560459  0.0899615405405427   F   F   F
  0.2519527844311398  0.6272810714285697  0.0899615405405427   F   F   F
  0.2519527844311398  0.8772810714285697  0.0899615405405427   F   F   F
  0.4519527544910176  0.1272810439560459  0.0899615405405427   F   F   F
  0.4519527544910176  0.3772810439560459  0.0899615405405427   F   F   F
  0.4519527544910176  0.6272810714285697  0.0899615405405427   F   F   F
  0.4519527544910176  0.8772810714285697  0.0899615405405427   F   F   F
  0.6519527844311384  0.1272810439560459  0.0899615405405427   F   F   F
  0.6519527844311384  0.3772810439560459  0.0899615405405427   F   F   F
  0.6519527844311384  0.6272810714285697  0.0899615405405427   F   F   F
  0.6519527844311384  0.8772810714285697  0.0899615405405427   F   F   F
  0.8519527844311412  0.1272810439560459  0.0899615405405427   F   F   F
  0.8519527844311412  0.3772810439560459  0.0899615405405427   F   F   F
  0.8519527844311412  0.6272810714285697  0.0899615405405427   F   F   F
  0.8519527844311412  0.8772810714285697  0.0899615405405427   F   F   F
  0.0022597305389240  0.1881615659340667  0.0901428378378384   F   F   F
  0.0022597305389240  0.4381615659340667  0.0901428378378384   F   F   F
  0.0022597305389240  0.6881615934065906  0.0901428378378384   F   F   F
  0.0022597305389240  0.9381615934065906  0.0901428378378384   F   F   F
  0.2022597305389198  0.1881615659340667  0.0901428378378384   F   F   F
  0.2022597305389198  0.4381615659340667  0.0901428378378384   F   F   F
  0.2022597305389198  0.6881615934065906  0.0901428378378384   F   F   F
  0.2022597305389198  0.9381615934065906  0.0901428378378384   F   F   F
  0.4022597005988047  0.1881615659340667  0.0901428378378384   F   F   F
  0.4022597005988047  0.4381615659340667  0.0901428378378384   F   F   F
  0.4022597005988047  0.6881615934065906  0.0901428378378384   F   F   F
  0.4022597005988047  0.9381615934065906  0.0901428378378384   F   F   F
  0.6022597305389255  0.1881615659340667  0.0901428378378384   F   F   F
  0.6022597305389255  0.4381615659340667  0.0901428378378384   F   F   F
  0.6022597305389255  0.6881615934065906  0.0901428378378384   F   F   F
  0.6022597305389255  0.9381615934065906  0.0901428378378384   F   F   F
  0.8022597305389212  0.1881615659340667  0.0901428378378384   F   F   F
  0.8022597305389212  0.4381615659340667  0.0901428378378384   F   F   F
  0.8022597305389212  0.6881615934065906  0.0901428378378384   F   F   F
  0.8022597305389212  0.9381615934065906  0.0901428378378384   F   F   F
  0.1016403293413148  0.1894750824175802  0.0909159729729723   F   F   F
  0.1016403293413148  0.4394750824175802  0.0909159729729723   F   F   F
  0.1016403293413148  0.6894750824175802  0.0909159729729723   F   F   F
  0.1016403293413148  0.9394751648351658  0.0909159729729723   F   F   F
  0.3016402994011997  0.1894750824175802  0.0909159729729723   F   F   F
  0.3016402994011997  0.4394750824175802  0.0909159729729723   F   F   F
  0.3016402994011997  0.6894750824175802  0.0909159729729723   F   F   F
  0.3016402994011997  0.9394751648351658  0.0909159729729723   F   F   F
  0.5016402994011955  0.1894750824175802  0.0909159729729723   F   F   F
  0.5016402994011955  0.4394750824175802  0.0909159729729723   F   F   F
  0.5016402994011955  0.6894750824175802  0.0909159729729723   F   F   F
  0.5016402994011955  0.9394751648351658  0.0909159729729723   F   F   F
  0.7016402994011983  0.1894750824175802  0.0909159729729723   F   F   F
  0.7016402994011983  0.4394750824175802  0.0909159729729723   F   F   F
  0.7016402994011983  0.6894750824175802  0.0909159729729723   F   F   F
  0.7016402994011983  0.9394751648351658  0.0909159729729723   F   F   F
  0.9016402994012012  0.1894750824175802  0.0909159729729723   F   F   F
  0.9016402994012012  0.4394750824175802  0.0909159729729723   F   F   F
  0.9016402994012012  0.6894750824175802  0.0909159729729723   F   F   F
  0.9016402994012012  0.9394751648351658  0.0909159729729723   F   F   F
  0.1022408083832360  0.0632923351648387  0.0900369729729746   F   F   F
  0.1022408083832360  0.3132923626373625  0.0900369729729746   F   F   F
  0.1022408083832360  0.5632923351648387  0.0900369729729746   F   F   F
  0.1022408083832360  0.8132923626373625  0.0900369729729746   F   F   F
  0.3022408083832318  0.0632923351648387  0.0900369729729746   F   F   F
  0.3022408083832318  0.3132923626373625  0.0900369729729746   F   F   F
  0.3022408083832318  0.5632923351648387  0.0900369729729746   F   F   F
  0.3022408083832318  0.8132923626373625  0.0900369729729746   F   F   F
  0.5022408083832346  0.0632923351648387  0.0900369729729746   F   F   F
  0.5022408083832346  0.3132923626373625  0.0900369729729746   F   F   F
  0.5022408083832346  0.5632923351648387  0.0900369729729746   F   F   F
  0.5022408083832346  0.8132923626373625  0.0900369729729746   F   F   F
  0.7022407784431124  0.0632923351648387  0.0900369729729746   F   F   F
  0.7022407784431124  0.3132923626373625  0.0900369729729746   F   F   F
  0.7022407784431124  0.5632923351648387  0.0900369729729746   F   F   F
  0.7022407784431124  0.8132923626373625  0.0900369729729746   F   F   F
  0.9022407784431152  0.0632923351648387  0.0900369729729746   F   F   F
  0.9022407784431152  0.3132923626373625  0.0900369729729746   F   F   F
  0.9022407784431152  0.5632923351648387  0.0900369729729746   F   F   F
  0.9022407784431152  0.8132923626373625  0.0900369729729746   F   F   F
  0.0013206586826371  0.0645202197802206  0.0903563243243255   F   F   F
  0.0013206586826371  0.3145202197802206  0.0903563243243255   F   F   F
  0.0013206586826371  0.5645202197802206  0.0903563243243255   F   F   F
  0.0013206586826371  0.8145202472527444  0.0903563243243255   F   F   F
  0.2013206287425149  0.0645202197802206  0.0903563243243255   F   F   F
  0.2013206287425149  0.3145202197802206  0.0903563243243255   F   F   F
  0.2013206287425149  0.5645202197802206  0.0903563243243255   F   F   F
  0.2013206287425149  0.8145202472527444  0.0903563243243255   F   F   F
  0.4013206287425177  0.0645202197802206  0.0903563243243255   F   F   F
  0.4013206287425177  0.3145202197802206  0.0903563243243255   F   F   F
  0.4013206287425177  0.5645202197802206  0.0903563243243255   F   F   F
  0.4013206287425177  0.8145202472527444  0.0903563243243255   F   F   F
  0.6013205988023955  0.0645202197802206  0.0903563243243255   F   F   F
  0.6013205988023955  0.3145202197802206  0.0903563243243255   F   F   F
  0.6013205988023955  0.5645202197802206  0.0903563243243255   F   F   F
  0.6013205988023955  0.8145202472527444  0.0903563243243255   F   F   F
  0.8013206287425163  0.0645202197802206  0.0903563243243255   F   F   F
  0.8013206287425163  0.3145202197802206  0.0903563243243255   F   F   F
  0.8013206287425163  0.5645202197802206  0.0903563243243255   F   F   F
  0.8013206287425163  0.8145202472527444  0.0903563243243255   F   F   F
  0.0527381137724561  0.0005304395604426  0.0895036486486518   F   F   F
  0.0527381137724561  0.2505304395604426  0.0895036486486518   F   F   F
  0.0527381137724561  0.5005304670329664  0.0895036486486518   F   F   F
  0.0527381137724561  0.7505304670329664  0.0895036486486518   F   F   F
  0.2527381137724518  0.0005304395604426  0.0895036486486518   F   F   F
  0.2527381137724518  0.2505304395604426  0.0895036486486518   F   F   F
  0.2527381137724518  0.5005304670329664  0.0895036486486518   F   F   F
  0.2527381137724518  0.7505304670329664  0.0895036486486518   F   F   F
  0.4527380838323367  0.0005304395604426  0.0895036486486518   F   F   F
  0.4527380838323367  0.2505304395604426  0.0895036486486518   F   F   F
  0.4527380838323367  0.5005304670329664  0.0895036486486518   F   F   F
  0.4527380838323367  0.7505304670329664  0.0895036486486518   F   F   F
  0.6527381137724575  0.0005304395604426  0.0895036486486518   F   F   F
  0.6527381137724575  0.2505304395604426  0.0895036486486518   F   F   F
  0.6527381137724575  0.5005304670329664  0.0895036486486518   F   F   F
  0.6527381137724575  0.7505304670329664  0.0895036486486518   F   F   F
  0.8527381137724532  0.0005304395604426  0.0895036486486518   F   F   F
  0.8527381137724532  0.2505304395604426  0.0895036486486518   F   F   F
  0.8527381137724532  0.5005304670329664  0.0895036486486518   F   F   F
  0.8527381137724532  0.7505304670329664  0.0895036486486518   F   F   F
  0.1523332335329357  0.0023556318681344  0.0903618648648674   F   F   F
  0.1523332335329357  0.2523556318681344  0.0903618648648674   F   F   F
  0.1523332335329357  0.5023556593406582  0.0903618648648674   F   F   F
  0.1523332335329357  0.7523556593406582  0.0903618648648674   F   F   F
  0.3523332335329314  0.0023556318681344  0.0903618648648674   F   F   F
  0.3523332335329314  0.2523556318681344  0.0903618648648674   F   F   F
  0.3523332335329314  0.5023556593406582  0.0903618648648674   F   F   F
  0.3523332335329314  0.7523556593406582  0.0903618648648674   F   F   F
  0.5523332035928163  0.0023556318681344  0.0903618648648674   F   F   F
  0.5523332035928163  0.2523556318681344  0.0903618648648674   F   F   F
  0.5523332035928163  0.5023556593406582  0.0903618648648674   F   F   F
  0.5523332035928163  0.7523556593406582  0.0903618648648674   F   F   F
  0.7523332335329371  0.0023556318681344  0.0903618648648674   F   F   F
  0.7523332335329371  0.2523556318681344  0.0903618648648674   F   F   F
  0.7523332335329371  0.5023556593406582  0.0903618648648674   F   F   F
  0.7523332335329371  0.7523556593406582  0.0903618648648674   F   F   F
  0.9523332335329329  0.0023556318681344  0.0903618648648674   F   F   F
  0.9523332335329329  0.2523556318681344  0.0903618648648674   F   F   F
  0.9523332335329329  0.5023556593406582  0.0903618648648674   F   F   F
  0.9523332335329329  0.7523556593406582  0.0903618648648674   F   F   F
  0.0431985704136822  0.1873804833035662  0.1589991321472524   T   T   T
  0.0431854642713057  0.4379170276709498  0.1586336141605011   T   T   T
  0.0432100582490256  0.6874659693745332  0.1593861792673510   T   T   T
  0.0433036064371000  0.9370897434039479  0.1596392728725453   T   T   T
  0.2431868011564774  0.1872562415896803  0.1595544764670582   T   T   T
  0.2437404775686894  0.4355327210390004  0.1605613271517974   T   T   T
  0.2424363682181429  0.6876558676550792  0.1609127657664806   T   T   T
  0.2429976905241935  0.9370251384618477  0.1595228576968192   T   T   T
  0.4430868438095115  0.1871542667425314  0.1596569208221749   T   T   T
  0.4431314459577533  0.4343845506741255  0.1590888626795114   T   T   T
  0.4446130288811960  0.6907320653758293  0.1602073198644131   T   T   T
  0.4432738800521760  0.9372138765710640  0.1591993894873428   T   T   T
  0.6435769602002501  0.1874271883713977  0.1591186458918099   T   T   T
  0.6427678409301503  0.4342581917129147  0.1583726993198644   T   T   T
  0.6449121240943366  0.6888802018983898  0.1609319413129124   T   T   T
  0.6433805658307694  0.9376038328130883  0.1594042828638853   T   T   T
  0.8434990891877914  0.1872920744842731  0.1594605969077993   T   T   T
  0.8418312642085617  0.4370939469501874  0.1621720458018570   T   T   T
  0.8428002113117298  0.6875496020402783  0.1597076233986328   T   T   T
  0.8434056837200752  0.9372865678016605  0.1595028057419853   T   T   T
  0.0933850238431323  0.9997386798447376  0.1592673300402284   T   T   T
  0.0929800497079376  0.2500912910197902  0.1589706660191112   T   T   T
  0.0930613751439355  0.4999927860664518  0.1590226820427514   T   T   T
  0.0931570581937612  0.7502725411965785  0.1588895620828184   T   T   T
  0.2929358979850038  0.9996166813079570  0.1592002141561585   T   T   T
  0.2928376107042385  0.2496992968688727  0.1591394653352011   T   T   T
  0.2946684942444605  0.4979904284427535  0.1570327244324967   T   T   T
  0.2928277918220808  0.7502330021195588  0.1597277191144911   T   T   T
  0.4934473498845012  0.9996883257724435  0.1591261311239691   T   T   T
  0.4930805599409377  0.2496915592273906  0.1588541193264690   T   T   T
  0.4954024546372893  0.4961740128629086  0.1570315809071103   T   T   T
  0.4933918005043936  0.7521621911081431  0.1595815184799450   T   T   T
  0.6934336839396464  0.9998815673005126  0.1590663320370353   T   T   T
  0.6935559310407686  0.2497500651621497  0.1588486735489536   T   T   T
  0.6938143373170931  0.4971736318291054  0.1582350323210759   T   T   T
  0.6932104727888971  0.7510528043154846  0.1599017180426485   T   T   T
  0.8933783627943421 -0.0000267780608065  0.1590474016179860   T   T   T
  0.8929815679457668  0.2503112915430861  0.1589971858190388   T   T   T
  0.8910044515754890  0.5000447083417681  0.1618439525480315   T   T   T
  0.8932180806310309  0.7499726686772827  0.1592563949841284   T   T   T
  0.1931032217161115  0.1248146905606728  0.1587499233196325   T   T   T
  0.1924488902532486  0.3755726497306136  0.1606628701030695   T   T   T
  0.1923862234451467  0.6249724105108660  0.1604079209804553   T   T   T
  0.1930209317595999  0.8749198833482463  0.1589308637318188   T   T   T
  0.3928622839418290  0.1245517339556594  0.1588603154691496   T   T   T
  0.3918141431744726  0.3751129553775066  0.1597824866499929   T   T   T
  0.3938858541479538  0.6276726515335753  0.1543193884656486   T   T   T
  0.3928599255901580  0.8750388009762156  0.1591915800956014   T   T   T
  0.5932700156802052  0.1250653461422486  0.1589589937432907   T   T   T
  0.5922257297211810  0.3740903687417538  0.1595883296295725   T   T   T
  0.5932852677253039  0.6265164890621481  0.1564321027646804   T   T   T
  0.5933963419887822  0.8751171554097251  0.1591755042347005   T   T   T
  0.7931441189899767  0.1251113825524192  0.1590123221153196   T   T   T
  0.7920135403458641  0.3761601223739715  0.1611967181965503   T   T   T
  0.7928029946224052  0.6255407979915049  0.1606982397326767   T   T   T
  0.7931061262631162  0.8752088525314720  0.1589336647745562   T   T   T
  0.9931054039178285  0.1252257374664925  0.1586389908353403   T   T   T
  0.9931682948903406  0.3757391200925976  0.1586265871193560   T   T   T
  0.9929630491423790  0.6247255544576759  0.1588495188810607   T   T   T
  0.9930208903731085  0.8753330744790173  0.1589571177486692   T   T   T
  0.1454111589127744  0.1848132112047250  0.1557400416946876   T   T   T
  0.1470539938250133  0.4374697098818790  0.1567257956825936   T   T   T
  0.1454855454575278  0.6858053991837071  0.1552955549170515   T   T   T
  0.1451347867997243  0.9346686121592284  0.1554232036013420   T   T   T
  0.3458725429859008  0.1856157031550658  0.1553853970556036   T   T   T
  0.3444981785793509  0.4377518833401541  0.1599793566746193   T   T   T
  0.3410117341416606  0.6862130363286728  0.1601910401253236   T   T   T
  0.3450856044448487  0.9350075015822026  0.1552040157713024   T   T   T
  0.5449519845954796  0.1852277952500856  0.1555339135988461   T   T   T
  0.5447197399161507  0.4370509512872139  0.1618933501997480   T   T   T
  0.5404308290913943  0.6869763175534986  0.1595229598558823   T   T   T
  0.5456184548890414  0.9344962601875324  0.1554203192751608   T   T   T
  0.7456026573069617  0.1852269420690659  0.1555941912198968   T   T   T
  0.7435159503093522  0.4374605609811183  0.1621083928492504   T   T   T
  0.7449467219208205  0.6865431685868051  0.1558713694594034   T   T   T
  0.7453101501352516  0.9352377407154666  0.1552579883013561   T   T   T
  0.9453970557771032  0.1860636404162840  0.1553566254357227   T   T   T
  0.9441173038312421  0.4354357453378204  0.1550571355701022   T   T   T
  0.9456846490628907  0.6859815347182363  0.1551939687551984   T   T   T
  0.9450840455095152  0.9349380598707744  0.1553878866551235   T   T   T
  0.1430456526946762  0.0623778751867298  0.1588225844488994   T   T   T
  0.1431413513497725  0.3127176306253562  0.1594462780126001   T   T   T
  0.1430296179327229  0.5622262059377839  0.1605498876019666   T   T   T
  0.1430114738634032  0.8125924345484153  0.1588223856943850   T   T   T
  0.3428459716965970  0.0621087344152034  0.1592703472428832   T   T   T
  0.3426969080677653  0.3120138561541747  0.1592308931367605   T   T   T
  0.3449004167145812  0.5626084099644361  0.1535578899994711   T   T   T
  0.3428923300491318  0.8126557803341216  0.1592544078353275   T   T   T
  0.5432808546826497  0.0623438361532121  0.1592431858850345   T   T   T
  0.5431867336465406  0.3118937940909088  0.1593969875265625   T   T   T
  0.5435913202902061  0.5616572857043890  0.1554230410647524   T   T   T
  0.5437032351166408  0.8131274923867911  0.1594792005727292   T   T   T
  0.7433032003166763  0.0622971154399488  0.1590999844104986   T   T   T
  0.7434277605793569  0.3128610811473047  0.1595419618355306   T   T   T
  0.7432895287169402  0.5617105291884342  0.1600531667376107   T   T   T
  0.7433705556365974  0.8131906704413380  0.1595545442217564   T   T   T
  0.9433105653209007  0.0624105299202206  0.1590630876381087   T   T   T
  0.9430886232534187  0.3129506246694817  0.1594169927949875   T   T   T
  0.9422538524642887  0.5620289537716237  0.1595850528893111   T   T   T
  0.9431086906786458  0.8124664812784671  0.1593132446108002   T   T   T
  0.1948297743021680  0.2472022053633973  0.1550173811791169   T   T   T
  0.1943583201782215  0.4987064377520415  0.1586970539271025   T   T   T
  0.1954810954606543  0.7476388337725923  0.1554673182745328   T   T   T
  0.1950089284074791  0.9973455684275880  0.1550755809141235   T   T   T
  0.3951300606292026  0.2472402448543780  0.1550627389046135   T   T   T
  0.3933606674151040  0.4978180151935120  0.1589556723264659   T   T   T
  0.3946798380850149  0.7488453177802598  0.1551241748897843   T   T   T
  0.3953135156886636  0.9976486078577440  0.1551435017438565   T   T   T
  0.5952188247380107  0.2468120393755420  0.1553717363413485   T   T   T
  0.5913438306813531  0.4980641872459750  0.1592715779954646   T   T   T
  0.5954900807736503  0.7480581832799623  0.1552702747965641   T   T   T
  0.5951153417380972  0.9975775060327212  0.1552112721190794   T   T   T
  0.7955061895010923  0.2470477864729007  0.1550372338011239   T   T   T
  0.7922695671548069  0.4975676030469752  0.1593395106562700   T   T   T
  0.7952230738863205  0.7479744984702469  0.1548867316829669   T   T   T
  0.7957406341124165  0.9974421279751375  0.1552489890971207   T   T   T
  0.9949859803312274  0.2471933681704521  0.1554376995016779   T   T   T
  0.9939753191261658  0.4970128071936885  0.1552227258140174   T   T   T
  0.9951049306414063  0.7473144498084899  0.1554673372817175   T   T   T
  0.9955719330006180  0.9972639705521319  0.1552351288677145   T   T   T
  0.0448451865558195  0.0600979740896134  0.1548034270466501   T   T   T
  0.0453779982564809  0.3105209074519820  0.1548353144882093   T   T   T
  0.0451435696035744  0.5596013840676094  0.1549383097260413   T   T   T
  0.0450539086532965  0.8110911547020881  0.1543475288372249   T   T   T
  0.2449157742787901  0.0596972995269454  0.1551078530741844   T   T   T
  0.2449867670205104  0.3110829089288248  0.1546202512267227   T   T   T
  0.2435213245807112  0.5619718864370047  0.1579164084228899   T   T   T
  0.2450644267951611  0.8110049112845727  0.1548606625930414   T   T   T
  0.4450659307355283  0.0601703860560052  0.1548968460190056   T   T   T
  0.4447866551920878  0.3098923842771108  0.1549236171803888   T   T   T
  0.4420967432930206  0.5622271495778227  0.1570199399017483   T   T   T
  0.4448722099833237  0.8112128814130598  0.1548644188196886   T   T   T
  0.6451407230404486  0.0600018081997931  0.1548164543041115   T   T   T
  0.6454278098749233  0.3097896185235043  0.1548689775181871   T   T   T
  0.6407250939950061  0.5626554030657779  0.1568993185431626   T   T   T
  0.6456274995025560  0.8108411115873450  0.1546173508406887   T   T   T
  0.8449743513475134  0.0606559798258846  0.1547092715926893   T   T   T
  0.8453009513468352  0.3116624618659494  0.1543534484669906   T   T   T
  0.8441928311152378  0.5614473878632431  0.1548595696287105   T   T   T
  0.8454441643363165  0.8110519155746545  0.1548433938721420   T   T   T
  0.0951698783987624  0.1225956550956464  0.1546079637780756   T   T   T
  0.0953800765799167  0.3729081364855855  0.1544812051363700   T   T   T
  0.0948384860257214  0.6221954571526033  0.1547562044420562   T   T   T
  0.0951895546110834  0.8728407383783260  0.1546861282243992   T   T   T
  0.2944254351286881  0.1220272925109798  0.1549165703124455   T   T   T
  0.2947790116082924  0.3727180628152544  0.1549566417136666   T   T   T
  0.2917741646844222  0.6238717812986563  0.1580244234026922   T   T   T
  0.2951482499967180  0.8724269116883573  0.1549684370645877   T   T   T
  0.4951631204549773  0.1219367105867366  0.1546330531823119   T   T   T
  0.4946361596066361  0.3723427309838228  0.1551515043863741   T   T   T
  0.4895907056149606  0.6255695377957766  0.1573645380848547   T   T   T
  0.4952231131261834  0.8722391470587912  0.1551315119192202   T   T   T
  0.6951654523381594  0.1224015219596597  0.1546307169488145   T   T   T
  0.6949568693953310  0.3721074713745951  0.1554334696385418   T   T   T
  0.6922104397543788  0.6252794130993337  0.1581248190945888   T   T   T
  0.6954116109930095  0.8730642787630389  0.1546276454143999   T   T   T
  0.8951553539259358  0.1226402208181108  0.1544904692345246   T   T   T
  0.8942093441414889  0.3727265954655653  0.1553261529948931   T   T   T
  0.8951435648357972  0.6230727650553864  0.1546110313163122   T   T   T
  0.8950813746032646  0.8721128586840506  0.1547843504016877   T   T   T
  0.0513642514970059  0.2012947527472519  0.0756671621621621   F   F   F
  0.0513642514970059  0.4512947802197829  0.0756671621621621   F   F   F
  0.0513642514970059  0.7012947802197829  0.0756671621621621   F   F   F
  0.0513642514970059  0.9512947527472519  0.0756671621621621   F   F   F
  0.2513642514970087  0.2012947527472519  0.0756671621621621   F   F   F
  0.2513642514970087  0.4512947802197829  0.0756671621621621   F   F   F
  0.2513642514970087  0.7012947802197829  0.0756671621621621   F   F   F
  0.2513642514970087  0.9512947527472519  0.0756671621621621   F   F   F
  0.4513642215568865  0.2012947527472519  0.0756671621621621   F   F   F
  0.4513642215568865  0.4512947802197829  0.0756671621621621   F   F   F
  0.4513642215568865  0.7012947802197829  0.0756671621621621   F   F   F
  0.4513642215568865  0.9512947527472519  0.0756671621621621   F   F   F
  0.6513642514970073  0.2012947527472519  0.0756671621621621   F   F   F
  0.6513642514970073  0.4512947802197829  0.0756671621621621   F   F   F
  0.6513642514970073  0.7012947802197829  0.0756671621621621   F   F   F
  0.6513642514970073  0.9512947527472519  0.0756671621621621   F   F   F
  0.8513642514970030  0.2012947527472519  0.0756671621621621   F   F   F
  0.8513642514970030  0.4512947802197829  0.0756671621621621   F   F   F
  0.8513642514970030  0.7012947802197829  0.0756671621621621   F   F   F
  0.8513642514970030  0.9512947527472519  0.0756671621621621   F   F   F
  0.0025575748503002  0.1414073626373593  0.0753565135135119   F   F   F
  0.0025575748503002  0.3914073901098902  0.0753565135135119   F   F   F
  0.0025575748503002  0.6414073901098902  0.0753565135135119   F   F   F
  0.0025575748503002  0.8914073351648355  0.0753565135135119   F   F   F
  0.2025575748502959  0.1414073626373593  0.0753565135135119   F   F   F
  0.2025575748502959  0.3914073901098902  0.0753565135135119   F   F   F
  0.2025575748502959  0.6414073901098902  0.0753565135135119   F   F   F
  0.2025575748502959  0.8914073351648355  0.0753565135135119   F   F   F
  0.4025575748502987  0.1414073626373593  0.0753565135135119   F   F   F
  0.4025575748502987  0.3914073901098902  0.0753565135135119   F   F   F
  0.4025575748502987  0.6414073901098902  0.0753565135135119   F   F   F
  0.4025575748502987  0.8914073351648355  0.0753565135135119   F   F   F
  0.6025575449101765  0.1414073626373593  0.0753565135135119   F   F   F
  0.6025575449101765  0.3914073901098902  0.0753565135135119   F   F   F
  0.6025575449101765  0.6414073901098902  0.0753565135135119   F   F   F
  0.6025575449101765  0.8914073351648355  0.0753565135135119   F   F   F
  0.8025575449101794  0.1414073626373593  0.0753565135135119   F   F   F
  0.8025575449101794  0.3914073901098902  0.0753565135135119   F   F   F
  0.8025575449101794  0.6414073901098902  0.0753565135135119   F   F   F
  0.8025575449101794  0.8914073351648355  0.0753565135135119   F   F   F
  0.1511057784431102  0.0761086813186793  0.0752788108108078   F   F   F
  0.1511057784431102  0.3261086813186793  0.0752788108108078   F   F   F
  0.1511057784431102  0.5761086813186793  0.0752788108108078   F   F   F
  0.1511057784431102  0.8261086813186793  0.0752788108108078   F   F   F
  0.3511057784431131  0.0761086813186793  0.0752788108108078   F   F   F
  0.3511057784431131  0.3261086813186793  0.0752788108108078   F   F   F
  0.3511057784431131  0.5761086813186793  0.0752788108108078   F   F   F
  0.3511057784431131  0.8261086813186793  0.0752788108108078   F   F   F
  0.5511057784431159  0.0761086813186793  0.0752788108108078   F   F   F
  0.5511057784431159  0.3261086813186793  0.0752788108108078   F   F   F
  0.5511057784431159  0.5761086813186793  0.0752788108108078   F   F   F
  0.5511057784431159  0.8261086813186793  0.0752788108108078   F   F   F
  0.7511057784431117  0.0761086813186793  0.0752788108108078   F   F   F
  0.7511057784431117  0.3261086813186793  0.0752788108108078   F   F   F
  0.7511057784431117  0.5761086813186793  0.0752788108108078   F   F   F
  0.7511057784431117  0.8261086813186793  0.0752788108108078   F   F   F
  0.9511057784431145  0.0761086813186793  0.0752788108108078   F   F   F
  0.9511057784431145  0.3261086813186793  0.0752788108108078   F   F   F
  0.9511057784431145  0.5761086813186793  0.0752788108108078   F   F   F
  0.9511057784431145  0.8261086813186793  0.0752788108108078   F   F   F
  0.1028458083832362  0.0164074450549450  0.0760765405405408   F   F   F
  0.1028458083832362  0.2664074450549450  0.0760765405405408   F   F   F
  0.1028458083832362  0.5164074725274759  0.0760765405405408   F   F   F
  0.1028458083832362  0.7664074725274759  0.0760765405405408   F   F   F
  0.3028458083832319  0.0164074450549450  0.0760765405405408   F   F   F
  0.3028458083832319  0.2664074450549450  0.0760765405405408   F   F   F
  0.3028458083832319  0.5164074725274759  0.0760765405405408   F   F   F
  0.3028458083832319  0.7664074725274759  0.0760765405405408   F   F   F
  0.5028458083832348  0.0164074450549450  0.0760765405405408   F   F   F
  0.5028458083832348  0.2664074450549450  0.0760765405405408   F   F   F
  0.5028458083832348  0.5164074725274759  0.0760765405405408   F   F   F
  0.5028458083832348  0.7664074725274759  0.0760765405405408   F   F   F
  0.7028458083832305  0.0164074450549450  0.0760765405405408   F   F   F
  0.7028458083832305  0.2664074450549450  0.0760765405405408   F   F   F
  0.7028458083832305  0.5164074725274759  0.0760765405405408   F   F   F
  0.7028458083832305  0.7664074725274759  0.0760765405405408   F   F   F
  0.9028458083832334  0.0164074450549450  0.0760765405405408   F   F   F
  0.9028458083832334  0.2664074450549450  0.0760765405405408   F   F   F
  0.9028458083832334  0.5164074725274759  0.0760765405405408   F   F   F
  0.9028458083832334  0.7664074725274759  0.0760765405405408   F   F   F
  0.1524668862275433  0.1749759065934100  0.1055845945945961   F   F   F
  0.1524668862275433  0.4249759340659338  0.1055845945945961   F   F   F
  0.1524668862275433  0.6749759340659338  0.1055845945945961   F   F   F
  0.1524668862275433  0.9249759615384647  0.1055845945945961   F   F   F
  0.3524668862275462  0.1749759065934100  0.1055845945945961   F   F   F
  0.3524668862275462  0.4249759340659338  0.1055845945945961   F   F   F