poscar file by
1.000000
3.112045 0.871372 -5.449984
-0.817935 2.640131 2.901598
32.499771 -8.783723 17.153606
Fe 
12 
Selective dynamics
Cartesian
13.732100 -3.910910 7.408206   T T T
14.768867 -2.089709 6.097065   T T T
16.624323 -2.816603 4.640119   T T T
14.737049 -1.999951 8.750897   T T T
16.474031 -3.126173 7.511834   T T T
17.656263 -1.335666 6.255549   T T T
16.372025 -3.186699 10.269337   T T T
18.305138 -4.062130 6.079363   T T T
19.409279 -2.473855 7.636650   T T T
18.172960 -4.289068 8.925799   T T T
19.136957 -2.462194 10.412342   T T T
21.080193 -3.391862 6.192536   T T T
