poscar file by
1.000000
3.089962 0.832349 -5.468616
-0.828219 2.666559 2.874386
32.610886 -8.361766 17.153606
Fe 
12 
Selective dynamics
Cartesian
13.780929 -3.730812 7.410422   T T T
14.800943 -1.917106 6.075960   T T T
16.657276 -2.647122 4.621691   T T T
14.776190 -1.797917 8.728707   T T T
16.517515 -2.925627 7.497118   T T T
17.683367 -1.140972 6.217414   T T T
16.423939 -2.956045 10.255415   T T T
18.351049 -3.864586 6.069724   T T T
19.448414 -2.251248 7.605899   T T T
18.228745 -4.060621 8.918900   T T T
19.184069 -2.210485 10.382086   T T T
21.121597 -3.173520 6.167143   T T T
