poscar file by
1.000000
3.070788 0.796423 -5.484743
-0.838150 2.690322 2.849254
32.707054 -7.977330 17.153606
Fe 
12 
Selective dynamics
Cartesian
13.823242 -3.566695 7.412419   T T T
14.828201 -1.760166 6.056962   T T T
16.685535 -2.493032 4.605409   T T T
14.809345 -1.614133 8.708416   T T T
16.554794 -2.743134 7.483869   T T T
17.705912 -0.964161 6.183089   T T T
16.468349 -2.746063 10.242564   T T T
18.390749 -3.684799 6.061375   T T T
19.481552 -2.048897 7.578232   T T T
18.276865 -3.852592 8.912699   T T T
19.223928 -1.981564 10.354535   T T T
21.157021 -2.975021 6.144620   T T T
