poscar file by
1.000000
3.080044 0.814019 -5.476964
-0.833231 2.678749 2.861574
32.660667 -8.165167 17.153606
Fe 
12 
Selective dynamics
Cartesian
13.802826 -3.646887 7.411446   T T T
14.815117 -1.836810 6.066216   T T T
16.671936 -2.568283 4.613303   T T T
14.793442 -1.703896 8.718340   T T T
16.536858 -2.832275 7.490323   T T T
17.695152 -1.050484 6.199811   T T T
16.446993 -2.848641 10.248861   T T T
18.371603 -3.772621 6.065404   T T T
19.465656 -2.147712 7.591708   T T T
18.253674 -3.954224 8.915718   T T T
19.204815 -2.093366 10.367994   T T T
21.139984 -3.071957 6.155551   T T T
