poscar file by
1.000000
3.100605 0.851452 -5.459644
-0.823118 2.653703 2.887718
32.557381 -8.567732 17.153606
Fe 
12 
Selective dynamics
Cartesian
13.757408 -3.818726 7.409343   T T T
14.785570 -2.001311 6.086227   T T T
16.641445 -2.729802 4.630613   T T T
14.757446 -1.896493 8.739550   T T T
16.496628 -3.023486 7.504278   T T T
17.670448 -1.235924 6.235968   T T T
16.399015 -3.068609 10.262236   T T T
18.328947 -3.960983 6.074366   T T T
19.429672 -2.359840 7.620858   T T T
18.201904 -4.172115 8.922255   T T T
19.161514 -2.333291 10.396852   T T T
21.101719 -3.280034 6.179449   T T T
